g3 2 1 0	# problem inst_sans_ref
 20 40 1 0 10	# vars, constraints, objectives, ranges, eqns
 10 1	# nonlinear constraints, objectives
 0 0	# network constraints: nonlinear, linear
 10 10 10	# nonlinear vars in constraints, objectives, both
 0 0 0 1	# linear network variables; functions; arith, flags
 0 0 0 0 0	# discrete variables: binary, integer, nonlinear (b,c,o)
 80 20	# nonzeros in Jacobian, gradients
 0 0	# max name lengths: constraints, variables
 0 0 0 0 0	# common exprs: b,c,o,c1,o1
b
0 0 1
0 0 1
0 0 1
0 0 1
0 0 1
0 0 1
0 0 1
0 0 1
0 0 1
0 0 1
0 0 1
0 0 1
0 0 1
0 0 1
0 0 1
0 0 1
0 0 1
0 0 1
0 0 1
0 0 1
r
4 0
4 0
4 0
4 0
4 0
4 0
4 0
4 0
4 0
4 0
1 0
1 0
1 0
1 0
1 0
1 0
1 0
1 0
1 0
1 0
2 -1
2 -1
2 -1
2 -1
2 -1
2 -1
2 -1
2 -1
2 -1
2 -1
2 0
2 0
2 0
2 0
2 0
2 0
2 0
2 0
2 0
2 0
C0
o16
o2
v0
v0
C1
o16
o2
v1
v1
C2
o16
o2
v2
v2
C3
o16
o2
v3
v3
C4
o16
o2
v4
v4
C5
o16
o2
v5
v5
C6
o16
o2
v6
v6
C7
o16
o2
v7
v7
C8
o16
o2
v8
v8
C9
o16
o2
v9
v9
C10
n0
C11
n0
C12
n0
C13
n0
C14
n0
C15
n0
C16
n0
C17
n0
C18
n0
C19
n0
C20
n0
C21
n0
C22
n0
C23
n0
C24
n0
C25
n0
C26
n0
C27
n0
C28
n0
C29
n0
C30
n0
C31
n0
C32
n0
C33
n0
C34
n0
C35
n0
C36
n0
C37
n0
C38
n0
C39
n0
O0 0
o54
60
o2
o2
n3.046941
v0
v0
o2
o2
n-0.325
v0
v5
o2
o2
n-0.595
v0
v6
o2
o2
n-0.62
v0
v7
o2
o2
n-0.585
v0
v8
o2
o2
n-0.725
v0
v9
o2
o2
n3.080316
v1
v1
o2
v1
v5
o2
o2
n-0.205
v1
v6
o2
o2
n0.995
v1
v7
o2
o2
n-0.42
v1
v8
o2
o2
n-0.95
v1
v9
o2
o2
n2.40658
v2
v2
o2
o2
n0.43
v2
v5
o2
o2
n-0.305
v2
v6
o2
o2
n-0.685
v2
v7
o2
o2
n0.64
v2
v8
o2
o2
n0.73
v2
v9
o2
o2
n1.491997
v3
v3
o2
o2
n-0.135
v3
v5
o2
o2
n0.25
v3
v6
o2
o2
n0.735
v3
v7
o2
o2
n-0.92
v3
v8
o2
o2
n-0.495
v3
v9
o2
o2
n1.907644
v4
v4
o2
o2
n-0.13
v4
v5
o2
o2
n-0.47
v4
v6
o2
o2
n-0.395
v4
v7
o2
o2
n-0.85
v4
v8
o2
o2
n-0.38
v4
v9
o2
o2
n-0.325
v5
v0
o2
v5
v1
o2
o2
n0.43
v5
v2
o2
o2
n-0.135
v5
v3
o2
o2
n-0.13
v5
v4
o2
o2
n0.930828
v5
v5
o2
o2
n-0.595
v6
v0
o2
o2
n-0.205
v6
v1
o2
o2
n-0.305
v6
v2
o2
o2
n0.25
v6
v3
o2
o2
n-0.47
v6
v4
o2
o2
n1.564178
v6
v6
o2
o2
n-0.62
v7
v0
o2
o2
n0.995
v7
v1
o2
o2
n-0.685
v7
v2
o2
o2
n0.735
v7
v3
o2
o2
n-0.395
v7
v4
o2
o2
n1.488284
v7
v7
o2
o2
n-0.585
v8
v0
o2
o2
n-0.42
v8
v1
o2
o2
n0.64
v8
v2
o2
o2
n-0.92
v8
v3
o2
o2
n-0.85
v8
v4
o2
o2
n4.566111
v8
v8
o2
o2
n-0.725
v9
v0
o2
o2
n-0.95
v9
v1
o2
o2
n0.73
v9
v2
o2
o2
n-0.495
v9
v3
o2
o2
n-0.38
v9
v4
o2
o2
n4.112986
v9
v9
k19
4
8
12
16
20
24
28
32
36
40
44
48
52
56
60
64
68
72
76
J0 2
0 0
10 1
J1 2
1 0
11 1
J2 2
2 0
12 1
J3 2
3 0
13 1
J4 2
4 0
14 1
J5 2
5 0
15 1
J6 2
6 0
16 1
J7 2
7 0
17 1
J8 2
8 0
18 1
J9 2
9 0
19 1
J10 2
0 -1
10 1
J11 2
1 -1
11 1
J12 2
2 -1
12 1
J13 2
3 -1
13 1
J14 2
4 -1
14 1
J15 2
5 -1
15 1
J16 2
6 -1
16 1
J17 2
7 -1
17 1
J18 2
8 -1
18 1
J19 2
9 -1
19 1
J20 2
0 -2
10 1
J21 2
1 -2
11 1
J22 2
2 -2
12 1
J23 2
3 -2
13 1
J24 2
4 -2
14 1
J25 2
5 -2
15 1
J26 2
6 -2
16 1
J27 2
7 -2
17 1
J28 2
8 -2
18 1
J29 2
9 -2
19 1
J30 2
0 -1
10 1
J31 2
1 -1
11 1
J32 2
2 -1
12 1
J33 2
3 -1
13 1
J34 2
4 -1
14 1
J35 2
5 -1
15 1
J36 2
6 -1
16 1
J37 2
7 -1
17 1
J38 2
8 -1
18 1
J39 2
9 -1
19 1
G0 20
0 0.35
1 -0.01
2 0.44
3 0.79
4 0.85
5 0.2
6 0.14
7 0.08
8 -0.15
9 0.42
10 -3.046941
11 -3.080316
12 -2.40658
13 -1.491997
14 -1.907644
15 -0.930828
16 -1.564178
17 -1.488284
18 -4.566111
19 -4.112986
